unsat
(:eliminated-applications 136
 :eliminated-vars         376
 :max-memory              24.32
 :memory                  18.78
 :nlsat-conflicts         20087
 :nlsat-decisions         12912
 :nlsat-learned-added     17704
 :nlsat-learned-deleted   11338
 :nlsat-propagations      157443
 :nlsat-restarts          11
 :nlsat-stages            18083
 :num-allocs              6622184
 :rlimit-count            11684120
 :time                    34.35
 :total-time              34.28)
